benchmark_instances/lp_benchmark_instances/benchmark_instance_5-1.lp
% Input: sequence of points
point(1,1).
point(1,4).
point(2,4).
point(5,0).
point(5,1).
point(2,5).
point(0,5).
point(0,0).
